20
1 0 63
2 0 124
2 1 45
3 0 124
3 1 101
3 2 45
4 0 103
4 1 17
4 2 154
4 3 96
5 0 159
5 1 93
5 2 16
5 3 95
5 4 154
6 0 25
6 1 60
6 2 153
6 3 120
6 4 87
6 5 129
7 0 108
7 1 60
7 2 48
7 3 108
7 4 23
7 5 29
7 6 10
8 0 4
8 1 82
8 2 124
8 3 12
8 4 134
8 5 63
8 6 103
8 7 141
9 0 123
9 1 32
9 2 18
9 3 146
9 4 122
9 5 90
9 6 67
9 7 33
9 8 141
10 0 105
10 1 160
10 2 96
10 3 19
10 4 75
10 5 58
10 6 14
10 7 29
10 8 28
10 9 3
11 0 29
11 1 60
11 2 52
11 3 74
11 4 81
11 5 21
11 6 61
11 7 26
11 8 144
11 9 124
11 10 132
12 0 139
12 1 123
12 2 99
12 3 160
12 4 2
12 5 91
12 6 78
12 7 40
12 8 122
12 9 85
12 10 31
12 11 9
13 0 7
13 1 1
13 2 101
13 3 50
13 4 117
13 5 27
13 6 73
13 7 139
13 8 98
13 9 138
13 10 94
13 11 159
13 12 5
14 0 131
14 1 148
14 2 70
14 3 22
14 4 88
14 5 14
14 6 17
14 7 45
14 8 110
14 9 159
14 10 115
14 11 149
14 12 87
14 13 102
15 0 137
15 1 16
15 2 15
15 3 66
15 4 34
15 5 41
15 6 123
15 7 114
15 8 18
15 9 22
15 10 115
15 11 134
15 12 74
15 13 156
15 14 64
16 0 43
16 1 121
16 2 7
16 3 106
16 4 149
16 5 139
16 6 76
16 7 115
16 8 7
16 9 98
16 10 142
16 11 106
16 12 82
16 13 67
16 14 29
16 15 63
17 0 29
17 1 88
17 2 77
17 3 17
17 4 39
17 5 119
17 6 47
17 7 126
17 8 103
17 9 25
17 10 18
17 11 41
17 12 61
17 13 6
17 14 31
17 15 123
17 16 145
18 0 84
18 1 37
18 2 34
18 3 13
18 4 60
18 5 4
18 6 69
18 7 74
18 8 111
18 9 89
18 10 20
18 11 118
18 12 136
18 13 148
18 14 67
18 15 107
18 16 25
18 17 16
19 0 21
19 1 143
19 2 15
19 3 77
19 4 23
19 5 54
19 6 160
19 7 101
19 8 89
19 9 31
19 10 107
19 11 129
19 12 83
19 13 105
19 14 27
19 15 5
19 16 131
19 17 140
19 18 132
